SCIP version 8.0.0 [precision: 8 byte] [memory: block] [mode: optimized] [LP solver: SoPlex 6.0.0] [GitHash: a740f0891e]
Copyright (C) 2002-2021 Konrad-Zuse-Zentrum fuer Informationstechnik Berlin (ZIB)

External libraries: 
  SoPlex 6.0.0         Linear Programming Solver developed at Zuse Institute Berlin (soplex.zib.de) [GitHash: 71a5873d]
  CppAD 20180000.0     Algorithmic Differentiation of C++ algorithms developed by B. Bell (github.com/coin-or/CppAD)
  ZLIB 1.2.11          General purpose compression library by J. Gailly and M. Adler (zlib.net)
  GMP 6.2.1            GNU Multiple Precision Arithmetic Library developed by T. Granlund (gmplib.org)
  ZIMPL 3.5.1          Zuse Institute Mathematical Programming Language developed by T. Koch (zimpl.zib.de)
  AMPL/MP 4e2d45c4     AMPL .nl file reader library (github.com/ampl/mp)
  PaPILO 2.0.0         parallel presolve for integer and linear optimization (github.com/scipopt/papilo) [GitHash: 76cafc1]
  bliss 0.73p          Computing Graph Automorphism Groups by T. Junttila and P. Kaski (www.tcs.hut.fi/Software/bliss/)
  Ipopt 3.13.2         Interior Point Optimizer developed by A. Waechter et.al. (github.com/coin-or/Ipopt)

user parameter file <scip.set> not found - using default parameters

read problem <../modeles/2_334.lp>
============

original problem has 1340 variables (668 bin, 0 int, 0 impl, 672 cont) and 677 constraints

solve problem
=============

presolving:
(round 1, fast)       2 del vars, 0 del conss, 0 add conss, 1424 chg bounds, 0 chg sides, 0 chg coeffs, 0 upgd conss, 0 impls, 2 clqs
(round 2, fast)       2 del vars, 0 del conss, 0 add conss, 1424 chg bounds, 0 chg sides, 668 chg coeffs, 0 upgd conss, 0 impls, 2 clqs
   (0.0s) running MILP presolver
   (0.1s) MILP presolver (46 rounds): 0 aggregations, 376 fixings, 8 bound changes
(round 3, medium)     378 del vars, 677 del conss, 493 add conss, 1432 chg bounds, 0 chg sides, 668 chg coeffs, 0 upgd conss, 0 impls, 2 clqs
(round 4, exhaustive) 378 del vars, 677 del conss, 493 add conss, 1432 chg bounds, 0 chg sides, 668 chg coeffs, 22 upgd conss, 0 impls, 2 clqs
(round 5, exhaustive) 403 del vars, 677 del conss, 493 add conss, 1432 chg bounds, 0 chg sides, 668 chg coeffs, 22 upgd conss, 10339 impls, 2 clqs
(round 6, fast)       403 del vars, 678 del conss, 493 add conss, 1432 chg bounds, 0 chg sides, 668 chg coeffs, 22 upgd conss, 10339 impls, 2 clqs
(round 7, exhaustive) 403 del vars, 678 del conss, 493 add conss, 1432 chg bounds, 0 chg sides, 668 chg coeffs, 57 upgd conss, 10339 impls, 2 clqs
(round 8, exhaustive) 428 del vars, 678 del conss, 493 add conss, 1432 chg bounds, 0 chg sides, 668 chg coeffs, 57 upgd conss, 16547 impls, 2 clqs
(round 9, fast)       428 del vars, 685 del conss, 493 add conss, 1432 chg bounds, 0 chg sides, 668 chg coeffs, 57 upgd conss, 16547 impls, 2 clqs
(round 10, exhaustive) 428 del vars, 685 del conss, 493 add conss, 1432 chg bounds, 0 chg sides, 668 chg coeffs, 81 upgd conss, 16547 impls, 2 clqs
(round 11, exhaustive) 454 del vars, 685 del conss, 493 add conss, 1432 chg bounds, 0 chg sides, 668 chg coeffs, 81 upgd conss, 23126 impls, 2 clqs
(round 12, fast)       454 del vars, 694 del conss, 493 add conss, 1432 chg bounds, 0 chg sides, 668 chg coeffs, 81 upgd conss, 23126 impls, 2 clqs
(round 13, exhaustive) 454 del vars, 694 del conss, 493 add conss, 1432 chg bounds, 0 chg sides, 668 chg coeffs, 106 upgd conss, 23126 impls, 2 clqs
(round 14, exhaustive) 479 del vars, 694 del conss, 493 add conss, 1432 chg bounds, 0 chg sides, 668 chg coeffs, 106 upgd conss, 30412 impls, 2 clqs
(round 15, fast)       479 del vars, 708 del conss, 493 add conss, 1432 chg bounds, 0 chg sides, 668 chg coeffs, 106 upgd conss, 30412 impls, 2 clqs
(round 16, exhaustive) 479 del vars, 708 del conss, 493 add conss, 1432 chg bounds, 0 chg sides, 668 chg coeffs, 114 upgd conss, 30412 impls, 2 clqs
(round 17, exhaustive) 505 del vars, 708 del conss, 493 add conss, 1432 chg bounds, 0 chg sides, 668 chg coeffs, 114 upgd conss, 40296 impls, 2 clqs
(round 18, fast)       505 del vars, 722 del conss, 493 add conss, 1432 chg bounds, 0 chg sides, 668 chg coeffs, 114 upgd conss, 40296 impls, 2 clqs
(round 19, exhaustive) 505 del vars, 722 del conss, 493 add conss, 1432 chg bounds, 0 chg sides, 668 chg coeffs, 124 upgd conss, 40296 impls, 2 clqs
(round 20, exhaustive) 531 del vars, 722 del conss, 493 add conss, 1432 chg bounds, 0 chg sides, 668 chg coeffs, 124 upgd conss, 47167 impls, 2 clqs
(round 21, fast)       531 del vars, 737 del conss, 493 add conss, 1432 chg bounds, 0 chg sides, 668 chg coeffs, 124 upgd conss, 47167 impls, 2 clqs
   (0.3s) running MILP presolver
   (0.3s) MILP presolver (5 rounds): 0 aggregations, 23 fixings, 0 bound changes
(round 22, medium)     554 del vars, 749 del conss, 493 add conss, 1432 chg bounds, 0 chg sides, 668 chg coeffs, 124 upgd conss, 47167 impls, 2 clqs
(round 23, fast)       554 del vars, 750 del conss, 493 add conss, 1432 chg bounds, 0 chg sides, 668 chg coeffs, 124 upgd conss, 47167 impls, 2 clqs
(round 24, exhaustive) 554 del vars, 750 del conss, 493 add conss, 1432 chg bounds, 0 chg sides, 668 chg coeffs, 137 upgd conss, 47167 impls, 2 clqs
(round 25, exhaustive) 579 del vars, 750 del conss, 493 add conss, 1432 chg bounds, 0 chg sides, 668 chg coeffs, 137 upgd conss, 53318 impls, 2 clqs
(round 26, fast)       579 del vars, 766 del conss, 493 add conss, 1432 chg bounds, 0 chg sides, 668 chg coeffs, 137 upgd conss, 53318 impls, 2 clqs
(round 27, exhaustive) 579 del vars, 766 del conss, 493 add conss, 1432 chg bounds, 0 chg sides, 668 chg coeffs, 139 upgd conss, 53318 impls, 2 clqs
(round 28, exhaustive) 604 del vars, 766 del conss, 493 add conss, 1432 chg bounds, 0 chg sides, 668 chg coeffs, 139 upgd conss, 59186 impls, 2 clqs
(round 29, fast)       605 del vars, 781 del conss, 493 add conss, 1433 chg bounds, 0 chg sides, 668 chg coeffs, 139 upgd conss, 59186 impls, 2 clqs
(round 30, exhaustive) 605 del vars, 781 del conss, 493 add conss, 1433 chg bounds, 0 chg sides, 668 chg coeffs, 142 upgd conss, 59186 impls, 2 clqs
(round 31, exhaustive) 630 del vars, 781 del conss, 493 add conss, 1433 chg bounds, 0 chg sides, 668 chg coeffs, 142 upgd conss, 67941 impls, 2 clqs
(round 32, fast)       634 del vars, 800 del conss, 493 add conss, 1437 chg bounds, 0 chg sides, 668 chg coeffs, 142 upgd conss, 67941 impls, 2 clqs
   (0.4s) probing cycle finished: starting next cycle
   (0.4s) probing: 52/340 (15.3%) - 252 fixings, 0 aggregations, 71959 implications, 0 bound changes
   (0.4s) probing aborted: 50/50 successive totally useless probings
(round 33, exhaustive) 658 del vars, 800 del conss, 493 add conss, 1437 chg bounds, 0 chg sides, 668 chg coeffs, 142 upgd conss, 72099 impls, 2 clqs
(round 34, fast)       658 del vars, 816 del conss, 493 add conss, 1437 chg bounds, 0 chg sides, 668 chg coeffs, 142 upgd conss, 72099 impls, 2 clqs
   (0.4s) running MILP presolver
   (0.4s) MILP presolver found nothing
   (0.4s) probing: 57/340 (16.8%) - 252 fixings, 0 aggregations, 71959 implications, 0 bound changes
   (0.4s) probing aborted: 50/50 successive totally useless probings
   (0.4s) symmetry computation started: requiring (bin +, int -, cont +), (fixed: bin -, int +, cont -)
   (0.4s) symmetry computation finished: 1 generators found (max: 1500, log10 of symmetry group size: 0.3)
(round 35, exhaustive) 658 del vars, 816 del conss, 494 add conss, 1437 chg bounds, 0 chg sides, 668 chg coeffs, 142 upgd conss, 72099 impls, 2 clqs
presolving (36 rounds: 36 fast, 23 medium, 21 exhaustive):
 658 deleted vars, 816 deleted constraints, 494 added constraints, 1437 tightened bounds, 0 added holes, 0 changed sides, 668 changed coefficients
 72099 implications, 2 cliques
presolved problem has 682 variables (340 bin, 0 int, 0 impl, 342 cont) and 350 constraints
      4 constraints of type <varbound>
      2 constraints of type <setppc>
    343 constraints of type <linear>
      1 constraints of type <orbitope>
Presolving Time: 0.40

 time | node  | left  |LP iter|LP it/n|mem/heur|mdpt |vars |cons |rows |cuts |sepa|confs|strbr|  dualbound   | primalbound  |  gap   | compl. 
  0.4s|     1 |     0 |   118 |     - |    28M |   0 | 682 | 351 | 349 |   0 |  0 |   0 |   0 |-1.414205e+00 |      --      |    Inf | unknown
r 0.4s|     1 |     0 |   118 |     - |randroun|   0 | 682 | 351 | 349 |   0 |  0 |   0 |   0 |-1.414205e+00 |-1.414205e+00 |   0.00%| unknown
  0.4s|     1 |     0 |   118 |     - |    28M |   0 | 682 | 351 | 349 |   0 |  0 |   0 |   0 |-1.414205e+00 |-1.414205e+00 |   0.00%| unknown

SCIP Status        : problem is solved [optimal solution found]
Solving Time (sec) : 0.42
Solving Nodes      : 1
Primal Bound       : -1.41420520303930e+00 (1 solutions)
Dual Bound         : -1.41420520303930e+00
Gap                : 0.00 %

primal solution (original space):
=================================

objective value:                     -1.4142052030393
y_1,108_                                            1 	(obj:0)
y_2,108_                                            1 	(obj:0)
x_2_                               -0.707618376691994 	(obj:1)
x_1_                               -0.706586826347305 	(obj:1)
t_2,108_                            0.086134453781511 	(obj:0)
t_2,109_                            0.913865546218489 	(obj:0)
t_1,109_                                            1 	(obj:0)

Statistics
==========

SCIP Status        : problem is solved [optimal solution found]
Total Time         :       0.42
  solving          :       0.42
  presolving       :       0.40 (included in solving)
  reading          :       0.00
  copying          :       0.00 (0 times copied the problem)
Original Problem   :
  Problem name     : ../modeles/2_334.lp
  Variables        : 1340 (668 binary, 0 integer, 0 implicit integer, 672 continuous)
  Constraints      : 677 initial, 677 maximal
  Objective        : minimize, 2 non-zeros (abs.min = 1, abs.max = 1)
Presolved Problem  :
  Problem name     : t_../modeles/2_334.lp
  Variables        : 682 (340 binary, 0 integer, 0 implicit integer, 342 continuous)
  Constraints      : 350 initial, 351 maximal
  Objective        : minimize, 340 non-zeros (abs.min = 0.011976, abs.max = 1.01796)
  Nonzeros         : 2724 constraint, 340 clique table
Presolvers         :   ExecTime  SetupTime  Calls  FixedVars   AggrVars   ChgTypes  ChgBounds   AddHoles    DelCons    AddCons   ChgSides   ChgCoefs
  boundshift       :       0.00       0.00      0          0          0          0          0          0          0          0          0          0
  convertinttobin  :       0.00       0.00      0          0          0          0          0          0          0          0          0          0
  domcol           :       0.02       0.00     12          0          0          0          0          0          0          0          0          0
  dualagg          :       0.00       0.00      0          0          0          0          0          0          0          0          0          0
  dualcomp         :       0.00       0.00     12          0          0          0          0          0          0          0          0          0
  dualinfer        :       0.00       0.00      0          0          0          0          0          0          0          0          0          0
  dualsparsify     :       0.00       0.00      1          0          0          0          0          0          0          0          0          0
  gateextraction   :       0.00       0.00      0          0          0          0          0          0          0          0          0          0
  implics          :       0.00       0.00     23          0          0          0          0          0          0          0          0          0
  inttobinary      :       0.00       0.00      0          0          0          0          0          0          0          0          0          0
  milp             :       0.13       0.00      3        399          0          0          8          0        677        493          0          0
  qpkktref         :       0.00       0.00      0          0          0          0          0          0          0          0          0          0
  redvub           :       0.00       0.00      0          0          0          0          0          0          0          0          0          0
  sparsify         :       0.01       0.00      3          0          0          0          0          0          0          0          0          0
  stuffing         :       0.00       0.00      0          0          0          0          0          0          0          0          0          0
  trivial          :       0.00       0.00     36          0          0          0          0          0          0          0          0          0
  tworowbnd        :       0.00       0.00      0          0          0          0          0          0          0          0          0          0
  dualfix          :       0.00       0.00     36          0          0          0          0          0          0          0          0          0
  genvbounds       :       0.00       0.00      0          0          0          0          0          0          0          0          0          0
  probing          :       0.22       0.00     11        252          0          0          0          0          0          0          0          0
  pseudoobj        :       0.00       0.00      0          0          0          0          0          0          0          0          0          0
  symmetry         :       0.00       0.00      1          0          0          0          0          0          0          1          0          0
  vbounds          :       0.00       0.00      1          0          0          0          0          0          0          0          0          0
  varbound         :       0.00       0.00     53          0          0          0          4          0        136          0          0          0
  setppc           :       0.00       0.00     73          0          0          0          0          0          0          0          0          0
  linear           :       0.02       0.00     57          5          2          0       1425          0          3          0          0        668
  orbitope         :       0.00       0.00      1          0          0          0          0          0          0          0          0          0
  logicor          :       0.00       0.00      0          0          0          0          0          0          0          0          0          0
  benders          :       0.00       0.00      0          0          0          0          0          0          0          0          0          0
  components       :       0.00       0.00      1          0          0          0          0          0          0          0          0          0
  root node        :          -          -      -          0          -          -          0          -          -          -          -          -
Constraints        :     Number  MaxNumber  #Separate #Propagate    #EnfoLP    #EnfoRelax  #EnfoPS    #Check   #ResProp    Cutoffs    DomReds       Cuts    Applied      Conss   Children
  benderslp        :          0          0          0          0          0          0          0         11          0          0          0          0          0          0          0
  integral         :          0          0          0          0          0          0          0         11          0          0          0          0          0          0          0
  varbound         :          4          4          0       1611          0          0          0          5          0          0          0          0          0          0          0
  setppc           :          2          2          0       1608          0          0          0          5          0          0          0          0          0          0          0
  linear           :        343        343          0       1618          0          0          0          1          0        127          0          0          0          0          0
  orbitope         :          1          1          0         24          0          0          0          1          0          0          0          0          0          0          0
  logicor          :          0+         1          0          3          0          0          0          0          0          0          0          0          0          0          0
  benders          :          0          0          0          0          0          0          0          2          0          0          0          0          0          0          0
  countsols        :          0          0          0          0          0          0          0          2          0          0          0          0          0          0          0
  components       :          0          0          0          0          0          0          0          0          0          0          0          0          0          0          0
Constraint Timings :  TotalTime  SetupTime   Separate  Propagate     EnfoLP     EnfoPS     EnfoRelax   Check    ResProp    SB-Prop
  benderslp        :       0.00       0.00       0.00       0.00       0.00       0.00       0.00       0.00       0.00       0.00
  integral         :       0.00       0.00       0.00       0.00       0.00       0.00       0.00       0.00       0.00       0.00
  varbound         :       0.01       0.00       0.00       0.01       0.00       0.00       0.00       0.00       0.00       0.00
  setppc           :       0.00       0.00       0.00       0.00       0.00       0.00       0.00       0.00       0.00       0.00
  linear           :       0.06       0.00       0.00       0.06       0.00       0.00       0.00       0.00       0.00       0.00
  orbitope         :       0.00       0.00       0.00       0.00       0.00       0.00       0.00       0.00       0.00       0.00
  logicor          :       0.00       0.00       0.00       0.00       0.00       0.00       0.00       0.00       0.00       0.00
  benders          :       0.00       0.00       0.00       0.00       0.00       0.00       0.00       0.00       0.00       0.00
  countsols        :       0.00       0.00       0.00       0.00       0.00       0.00       0.00       0.00       0.00       0.00
  components       :       0.00       0.00       0.00       0.00       0.00       0.00       0.00       0.00       0.00       0.00
Propagators        : #Propagate   #ResProp    Cutoffs    DomReds
  dualfix          :          1          0          0          0
  genvbounds       :          0          0          0          0
  nlobbt           :          0          0          0          0
  obbt             :          0          0          0          0
  probing          :          0          0          0          0
  pseudoobj        :          2          0          0          0
  redcost          :          1          0          0          0
  rootredcost      :          0          0          0          0
  symmetry         :          0          0          0          0
  vbounds          :         13          0          0          0
Propagator Timings :  TotalTime  SetupTime   Presolve  Propagate    ResProp    SB-Prop
  dualfix          :       0.00       0.00       0.00       0.00       0.00       0.00
  genvbounds       :       0.00       0.00       0.00       0.00       0.00       0.00
  nlobbt           :       0.00       0.00       0.00       0.00       0.00       0.00
  obbt             :       0.00       0.00       0.00       0.00       0.00       0.00
  probing          :       0.22       0.00       0.22       0.00       0.00       0.00
  pseudoobj        :       0.00       0.00       0.00       0.00       0.00       0.00
  redcost          :       0.00       0.00       0.00       0.00       0.00       0.00
  rootredcost      :       0.00       0.00       0.00       0.00       0.00       0.00
  symmetry         :       0.00       0.00       0.00       0.00       0.00       0.00
  vbounds          :       0.01       0.00       0.00       0.01       0.00       0.00
Orbital fixing     :
  vars fixed to 0  :          0
  vars fixed to 1  :          0
Conflict Analysis  :       Time      Calls    Success    DomReds  Conflicts   Literals    Reconvs ReconvLits   Dualrays   Nonzeros   LP Iters   (pool size: [10000,10000])
  propagation      :       0.00          0          0          -          0        0.0          0        0.0          -          -          -
  infeasible LP    :       0.00          2          0          -          0        0.0          0        0.0          0        0.0          0
  bound exceed. LP :       0.00          0          0          -          0        0.0          0        0.0          0        0.0          0
  strong branching :       0.00          0          0          -          0        0.0          0        0.0          -          -          0
  pseudo solution  :       0.00          0          0          -          0        0.0          0        0.0          -          -          -
  applied globally :       0.00          -          -          0          0        0.0          -          -          0          -          -
  applied locally  :          -          -          -          0          0        0.0          -          -          0          -          -
Separators         :   ExecTime  SetupTime      Calls    Cutoffs    DomReds       Cuts    Applied      Conss
  cut pool         :       0.00                     0          -          -          0          -          -    (maximal pool size: 0)
  aggregation      :       0.00       0.00          0          0          0          0          0          0
  > cmir           :          -          -          -          -          -          -          0          -
  > flowcover      :          -          -          -          -          -          -          0          -
  > knapsackcover  :          -          -          -          -          -          -          0          -
  cgmip            :       0.00       0.00          0          0          0          0          0          0
  clique           :       0.00       0.00          0          0          0          0          0          0
  closecuts        :       0.00       0.00          0          0          0          0          0          0
  convexproj       :       0.00       0.00          0          0          0          0          0          0
  disjunctive      :       0.00       0.00          0          0          0          0          0          0
  eccuts           :       0.00       0.00          0          0          0          0          0          0
  gauge            :       0.00       0.00          0          0          0          0          0          0
  gomory           :       0.00       0.00          0          0          0          0          0          0
  > gomorymi       :          -          -          -          -          -          -          0          -
  > strongcg       :          -          -          -          -          -          -          0          -
  impliedbounds    :       0.00       0.00          0          0          0          0          0          0
  interminor       :       0.00       0.00          0          0          0          0          0          0
  intobj           :       0.00       0.00          0          0          0          0          0          0
  mcf              :       0.00       0.00          0          0          0          0          0          0
  minor            :       0.00       0.00          0          0          0          0          0          0
  mixing           :       0.00       0.00          0          0          0          0          0          0
  oddcycle         :       0.00       0.00          0          0          0          0          0          0
  rapidlearning    :       0.00       0.00          0          0          0          0          0          0
  rlt              :       0.00       0.00          0          0          0          0          0          0
  zerohalf         :       0.00       0.00          0          0          0          0          0          0
Cutselectors       :   ExecTime  SetupTime
  hybrid           :       0.00       0.00
Pricers            :   ExecTime  SetupTime      Calls       Vars
  problem variables:       0.00          -          0          0
Branching Rules    :   ExecTime  SetupTime   BranchLP  BranchExt   BranchPS    Cutoffs    DomReds       Cuts      Conss   Children
  allfullstrong    :       0.00       0.00          0          0          0          0          0          0          0          0
  cloud            :       0.00       0.00          0          0          0          0          0          0          0          0
  distribution     :       0.00       0.00          0          0          0          0          0          0          0          0
  fullstrong       :       0.00       0.00          0          0          0          0          0          0          0          0
  inference        :       0.00       0.00          0          0          0          0          0          0          0          0
  leastinf         :       0.00       0.00          0          0          0          0          0          0          0          0
  lookahead        :       0.00       0.00          0          0          0          0          0          0          0          0
  mostinf          :       0.00       0.00          0          0          0          0          0          0          0          0
  multaggr         :       0.00       0.00          0          0          0          0          0          0          0          0
  nodereopt        :       0.00       0.00          0          0          0          0          0          0          0          0
  pscost           :       0.00       0.00          0          0          0          0          0          0          0          0
  random           :       0.00       0.00          0          0          0          0          0          0          0          0
  relpscost        :       0.00       0.00          0          0          0          0          0          0          0          0
  vanillafullstrong:       0.00       0.00          0          0          0          0          0          0          0          0
Primal Heuristics  :   ExecTime  SetupTime      Calls      Found       Best
  LP solutions     :       0.00          -          -          0          0
  relax solutions  :       0.00          -          -          0          0
  pseudo solutions :       0.00          -          -          0          0
  strong branching :       0.00          -          -          0          0
  actconsdiving    :       0.00       0.00          0          0          0
  adaptivediving   :       0.00       0.00          0          0          0
  alns             :       0.00       0.00          0          0          0
  bound            :       0.00       0.00          0          0          0
  clique           :       0.00       0.00          1          0          0
  coefdiving       :       0.00       0.00          0          0          0
  completesol      :       0.00       0.00          0          0          0
  conflictdiving   :       0.00       0.00          0          0          0
  crossover        :       0.00       0.00          0          0          0
  dins             :       0.00       0.00          0          0          0
  distributiondivin:       0.00       0.00          0          0          0
  dps              :       0.00       0.00          0          0          0
  dualval          :       0.00       0.00          0          0          0
  farkasdiving     :       0.00       0.00          0          0          0
  feaspump         :       0.00       0.00          0          0          0
  fixandinfer      :       0.00       0.00          0          0          0
  fracdiving       :       0.00       0.00          0          0          0
  gins             :       0.00       0.00          0          0          0
  guideddiving     :       0.00       0.00          0          0          0
  indicator        :       0.00       0.00          0          0          0
  intdiving        :       0.00       0.00          0          0          0
  intshifting      :       0.00       0.00          0          0          0
  linesearchdiving :       0.00       0.00          0          0          0
  localbranching   :       0.00       0.00          0          0          0
  locks            :       0.00       0.00          1          0          0
  lpface           :       0.00       0.00          0          0          0
  mpec             :       0.00       0.00          0          0          0
  multistart       :       0.00       0.00          0          0          0
  mutation         :       0.00       0.00          0          0          0
  nlpdiving        :       0.00       0.00          0          0          0
  objpscostdiving  :       0.00       0.00          0          0          0
  octane           :       0.00       0.00          0          0          0
  ofins            :       0.00       0.00          0          0          0
  oneopt           :       0.00       0.00          0          0          0
  padm             :       0.00       0.00          0          0          0
  proximity        :       0.00       0.00          0          0          0
  pscostdiving     :       0.00       0.00          0          0          0
  randrounding     :       0.00       0.00          1          1          1
  rens             :       0.00       0.00          0          0          0
  reoptsols        :       0.00       0.00          0          0          0
  repair           :       0.00       0.00          0          0          0
  rins             :       0.00       0.00          0          0          0
  rootsoldiving    :       0.00       0.00          0          0          0
  rounding         :       0.00       0.00          0          0          0
  shiftandpropagate:       0.00       0.00          1          0          0
  shifting         :       0.00       0.00          0          0          0
  simplerounding   :       0.00       0.00          0          0          0
  subnlp           :       0.00       0.00          0          0          0
  trivial          :       0.00       0.00          2          0          0
  trivialnegation  :       0.00       0.00          0          0          0
  trustregion      :       0.00       0.00          0          0          0
  trysol           :       0.00       0.00          0          0          0
  twoopt           :       0.00       0.00          0          0          0
  undercover       :       0.00       0.00          0          0          0
  vbounds          :       0.00       0.00          0          0          0
  veclendiving     :       0.00       0.00          0          0          0
  zeroobj          :       0.00       0.00          0          0          0
  zirounding       :       0.00       0.00          0          0          0
  other solutions  :          -          -          -          0          -
Diving (single)    :      Calls      Nodes   LP Iters Backtracks  Conflicts   MinDepth   MaxDepth   AvgDepth  RoundSols  NLeafSols  MinSolDpt  MaxSolDpt  AvgSolDpt
  actconsdiving    :          0          -          -          -          -          -          -          -          -          -          -          -          -
  coefdiving       :          0          -          -          -          -          -          -          -          -          -          -          -          -
  conflictdiving   :          0          -          -          -          -          -          -          -          -          -          -          -          -
  distributiondivin:          0          -          -          -          -          -          -          -          -          -          -          -          -
  farkasdiving     :          0          -          -          -          -          -          -          -          -          -          -          -          -
  fracdiving       :          0          -          -          -          -          -          -          -          -          -          -          -          -
  guideddiving     :          0          -          -          -          -          -          -          -          -          -          -          -          -
  linesearchdiving :          0          -          -          -          -          -          -          -          -          -          -          -          -
  pscostdiving     :          0          -          -          -          -          -          -          -          -          -          -          -          -
  veclendiving     :          0          -          -          -          -          -          -          -          -          -          -          -          -
Diving (adaptive)  :      Calls      Nodes   LP Iters Backtracks  Conflicts   MinDepth   MaxDepth   AvgDepth  RoundSols  NLeafSols  MinSolDpt  MaxSolDpt  AvgSolDpt
  actconsdiving    :          0          -          -          -          -          -          -          -          -          -          -          -          -
  coefdiving       :          0          -          -          -          -          -          -          -          -          -          -          -          -
  conflictdiving   :          0          -          -          -          -          -          -          -          -          -          -          -          -
  distributiondivin:          0          -          -          -          -          -          -          -          -          -          -          -          -
  farkasdiving     :          0          -          -          -          -          -          -          -          -          -          -          -          -
  fracdiving       :          0          -          -          -          -          -          -          -          -          -          -          -          -
  guideddiving     :          0          -          -          -          -          -          -          -          -          -          -          -          -
  linesearchdiving :          0          -          -          -          -          -          -          -          -          -          -          -          -
  pscostdiving     :          0          -          -          -          -          -          -          -          -          -          -          -          -
  veclendiving     :          0          -          -          -          -          -          -          -          -          -          -          -          -
Neighborhoods      :      Calls  SetupTime  SolveTime SolveNodes       Sols       Best       Exp3  EpsGreedy        UCB TgtFixRate  Opt  Inf Node Stal  Sol  Usr Othr Actv
  rens             :          0       0.00       0.00          0          0          0    0.00000   -1.00000    1.00000      0.900    0    0    0    0    0    0    0    1
  rins             :          0       0.00       0.00          0          0          0    0.00000   -1.00000    1.00000      0.900    0    0    0    0    0    0    0    1
  mutation         :          0       0.00       0.00          0          0          0    0.00000   -1.00000    1.00000      0.900    0    0    0    0    0    0    0    1
  localbranching   :          0       0.00       0.00          0          0          0    0.00000   -1.00000    1.00000      0.900    0    0    0    0    0    0    0    1
  crossover        :          0       0.00       0.00          0          0          0    0.00000   -1.00000    1.00000      0.900    0    0    0    0    0    0    0    1
  proximity        :          0       0.00       0.00          0          0          0    0.00000   -1.00000    1.00000      0.900    0    0    0    0    0    0    0    1
  zeroobjective    :          0       0.00       0.00          0          0          0    0.00000   -1.00000    1.00000      0.900    0    0    0    0    0    0    0    1
  dins             :          0       0.00       0.00          0          0          0    0.00000   -1.00000    1.00000      0.900    0    0    0    0    0    0    0    1
  trustregion      :          0       0.00       0.00          0          0          0    0.00000   -1.00000    1.00000      0.900    0    0    0    0    0    0    0    0
LP                 :       Time      Calls Iterations  Iter/call   Iter/sec  Time-0-It Calls-0-It    ItLimit
  primal LP        :       0.00          0          0       0.00          -       0.00          0
  dual LP          :       0.00          1        112     112.00          -       0.00          0
  lex dual LP      :       0.00          0          0       0.00          -
  barrier LP       :       0.00          0          0       0.00          -       0.00          0
  resolve instable :       0.00          0          0       0.00          -
  diving/probing LP:       0.00          3          6       2.00          -
  strong branching :       0.00          0          0       0.00          -          -          -          0
    (at root node) :          -          0          0       0.00          -
  conflict analysis:       0.00          0          0       0.00          -
B&B Tree           :
  number of runs   :          1
  nodes            :          1 (0 internal, 1 leaves)
  feasible leaves  :          0
  infeas. leaves   :          0
  objective leaves :          1
  nodes (total)    :          1 (0 internal, 1 leaves)
  nodes left       :          0
  max depth        :          0
  max depth (total):          0
  backtracks       :          0 (0.0%)
  early backtracks :          0 (0.0%)
  nodes exc. ref.  :          0 (0.0%)
  delayed cutoffs  :          0
  repropagations   :          0 (0 domain reductions, 0 cutoffs)
  avg switch length:       2.00
  switching time   :       0.00
Estim. Tree Size   :          1
Estimation Tree    : 1 nodes (1 visited, 0 internal, 1 leaves, 0 open), weight: 1.0000 completed 1.0000
Estimations        :      estim      value      trend resolution     smooth
  wbe              :          1          -          -          -          -
  tree-profile     :         -1          -          -          -          -
  gap              :          1    1.00000    1.00000          1          1
  tree-weight      :          1    1.00000    1.00000          1          1
  leaf-frequency   :          1    0.50000    1.00000          1          1
  ssg              :          1    0.00000   -1.00000          1          1
  open-nodes       :          1    0.00000    0.00000          1          1
Root Node          :
  First LP value   : -1.41420520303930e+00
  First LP Iters   :        112 (82779.01 Iter/sec)
  First LP Time    :       0.00
  Final Dual Bound : -1.41420520303930e+00
  Final Root Iters :        112
  Root LP Estimate :                     -
Solution           :
  Solutions found  :          1 (1 improvements)
  First Solution   : -1.41420520303930e+00   (in run 1, after 1 nodes, 0.42 seconds, depth 2, found by <randrounding>)
  Gap First Sol.   :       0.00 %
  Gap Last Sol.    :       0.00 %
  Primal Bound     : -1.41420520303930e+00   (in run 1, after 1 nodes, 0.42 seconds, depth 2, found by <randrounding>)
  Dual Bound       : -1.41420520303930e+00
  Gap              :       0.00 %
Integrals          :      Total       Avg%
  primal-dual      :      42.10      99.92
  primal-ref       :          -          - (not evaluated)
  dual-ref         :          -          - (not evaluated)
